NAME: instance_2829
TYPE: TSP
DIMENSION: 20
EDGE_WEIGHT_TYPE: EUC_2D
NODE_COORD_SECTION
0 40.08 78.46
1 81.94 40.11
2 77.90 91.21
3 71.53 48.23
4 35.16 29.60
5 94.12 18.59
6 49.27 49.17
7 1.34 63.41
8 90.91 97.73
9 24.14 72.44
10 76.14 11.68
11 28.46 29.17
12 10.02 51.67
13 21.08 10.80
14 72.11 45.08
15 65.98 93.89
16 0.71 82.08
17 52.39 58.62
18 83.96 35.31
19 42.57 96.88
EOF
